interval = 60;
days = 7;
demand = [11,11,11,11,6,7,8,15,15,22,22,27,26,23,25,27,21,17,12,12,12,17,19,18,13,13,13,13,8,7,9,16,16,23,23,30,28,25,27,29,23,19,14,12,12,15,20,19,14,14,14,14,11,9,8,15,15,22,22,27,26,25,27,29,23,19,14,14,12,15,20,19,14,14,14,14,11,11,12,16,16,21,21,26,23,18,20,22,19,17,12,12,12,15,20,19,14,14,14,14,11,9,8,13,13,19,19,24,23,20,22,24,20,17,12,12,12,11,16,15,10,10,10,10,7,10,7,11,11,14,15,18,16,20,22,21,21,18,14,14,9,9,12,10,8,8,8,8,7,5,4,8,8,11,12,19,17,16,21,20,20,17,13,9,9,12,15,13];
shiftTypes = 4;
minStart = [5, 9, 13, 21];
maxStart = [8, 11, 15, 23];
minLength = [7, 7, 7, 7];
maxLength = [9, 9, 9, 9];
minDuties = 4.8;
maxDuties = 5;
avgMinutes = 2280;
weightUnderCover = 1;
weightOverCover = 1;
weightDutiesPerWeek = 0;
weightShiftInstances = 60;
